; benchmark generated from python API
(set-info :status unknown)
(declare-datatypes ((RealState 0)) (((RMk1 (rval1 Real)) (RMk2 (rval2 Real)))))
 (assert
 (forall ((|v9:0| Real) )(exists ((|v8:1_st| RealState) (val!1290 Real) )(forall ((|v7:2| Real) )(exists ((|v6:3_st| RealState) (val!1291 Real) )(forall ((|v5:4| Real) )(exists ((|v4:5_st| RealState) (val!1292 Real) )(forall ((|v3:6| Real) )(exists ((|v2:7_st| RealState) (val!1293 Real) )(forall ((|v1:8| Real) )(exists ((|v0:9_st| RealState) (val!1294 Real) )(let (($x127 (<= (+ (+ (* 12.0 |v1:8|) (* 5.0 |v1:8|)) (* (- 4.0) |v7:2|)) 3.0)))
 (let (($x803 (<= (+ (+ (* 18.0 |v9:0|) (* 11.0 |v5:4|)) (* (- 15.0) (rval2 |v0:9_st|))) 5.0)))
 (let ((?x73 (rval2 |v6:3_st|)))
 (let ((?x686 (- 8.0)))
 (let ((?x880 (* ?x686 ?x73)))
 (let (($x194 (<= (+ (+ (* (- 2.0) |v1:8|) (* 17.0 (rval2 |v0:9_st|))) ?x880) 16.0)))
 (let ((?x1399 (- 1.0)))
 (let (($x890 (<= (+ (+ (* (- 15.0) |v9:0|) (* 17.0 |v5:4|)) (* 13.0 ?x73)) ?x1399)))
 (let ((?x1283 (- 14.0)))
 (let ((?x1239 (- 11.0)))
 (let ((?x330 (* ?x1239 |v1:8|)))
 (let (($x917 (<= (+ (+ (* (- 18.0) (rval2 |v2:7_st|)) (* (- 7.0) |v3:6|)) ?x330) ?x1283)))
 (let ((?x1281 (+ (+ (* (- 10.0) (rval2 |v8:1_st|)) (* (- 6.0) (rval2 |v8:1_st|))) (* (- 6.0) ?x73))))
 (let (($x159 (or (<= (+ (+ (* 2.0 (rval2 |v2:7_st|)) (* (- 6.0) |v1:8|)) ?x330) ?x1283) (<= ?x1281 16.0))))
 (let ((?x1417 (- 6.0)))
 (let ((?x510 (+ (+ (* ?x1399 (rval2 |v8:1_st|)) (* ?x1239 (rval2 |v4:5_st|))) (* 6.0 (rval2 |v0:9_st|)))))
 (let ((?x63 (rval2 |v8:1_st|)))
 (let ((?x1200 (* 16.0 ?x63)))
 (let (($x1349 (<= (+ (+ (* (- 5.0) |v9:0|) (* 9.0 (rval2 |v0:9_st|))) ?x1200) 18.0)))
 (let (($x629 (<= (+ (+ (* 11.0 |v5:4|) (* 15.0 ?x73)) (* ?x686 (rval2 |v2:7_st|))) 9.0)))
 (let ((?x339 (- 3.0)))
 (let (($x620 (<= (+ (+ (* 9.0 |v1:8|) (* 10.0 (rval2 |v2:7_st|))) (* (- 17.0) ?x73)) ?x339)))
 (let ((?x1161 (+ (+ (* (- 18.0) (rval2 |v0:9_st|)) (* (- 2.0) (rval2 |v0:9_st|))) (* (- 9.0) ?x63))))
 (let (($x680 (and (<= (+ (+ (* 9.0 (rval2 |v2:7_st|)) |v5:4|) ?x880) 11.0) (<= ?x1161 ?x1239))))
 (let ((?x233 (- 4.0)))
 (let (($x363 (<= (+ (+ (* 16.0 (rval2 |v2:7_st|)) (* 6.0 |v3:6|)) (* ?x233 |v1:8|)) ?x233)))
 (let ((?x1015 (rval2 |v4:5_st|)))
 (let ((?x1100 (* 20.0 ?x1015)))
 (let (($x116 (and (<= (+ (+ (* 13.0 (rval2 |v2:7_st|)) (* 7.0 |v3:6|)) ?x1100) 11.0) $x363)))
 (let (($x498 (and (and $x116 $x680) (and (and $x620 $x629) (or $x1349 (<= ?x510 ?x1417))))))
 (let (($x817 (<= (+ (+ (* 5.0 ?x73) (* ?x339 (rval2 |v0:9_st|))) (* (- 18.0) |v1:8|)) 17.0)))
 (let ((?x346 (- 15.0)))
 (let (($x1162 (<= (+ (+ (* ?x1399 |v1:8|) (* 15.0 ?x73)) (* ?x1399 (rval2 |v2:7_st|))) ?x346)))
 (let (($x320 (or (<= (+ (+ (* 13.0 ?x63) (* ?x1399 ?x73)) (* 15.0 |v1:8|)) 20.0) (<= (+ (+ ?x330 (* 12.0 (rval2 |v2:7_st|))) (* 7.0 ?x1015)) ?x686))))
 (let ((?x601 (- 20.0)))
 (let (($x77 (<= (+ (+ (* (- 7.0) |v3:6|) (* (- 19.0) ?x73)) (* 16.0 ?x1015)) ?x601)))
 (let ((?x1010 (- 16.0)))
 (let (($x613 (<= (+ (+ (* ?x1399 (rval2 |v2:7_st|)) (* 11.0 |v3:6|)) (* ?x686 |v3:6|)) ?x1010)))
 (let (($x667 (or (or $x613 (and $x77 (and $x320 (and $x1162 $x817)))) (and $x498 (or (and $x159 (or $x917 $x890)) (or $x194 (and $x803 $x127)))))))
 (let (($x945 (not (= |v0:9_st| (RMk1 val!1294)))))
 (let (($x729 (not (= |v2:7_st| (RMk1 val!1293)))))
 (let (($x655 (not (= |v4:5_st| (RMk1 val!1292)))))
 (let (($x501 (not (= |v6:3_st| (RMk1 val!1291)))))
 (let (($x699 (not (= |v8:1_st| (RMk1 val!1290)))))
 (and $x699 $x501 $x655 $x729 $x945 $x667))))))))))))))))))))))))))))))))))))))))))))))
 )
 )
 )
 )
 )
 )
 )
 )
 )
 )
(check-sat)
